/* Objective function */
min: -48*x1_4-99* x2_5-50* x3_6-72* x4_7-32* x1_8-72* x2_8-40* x3_8-64* x4_8-63* x2_9-35* x3_9-56* x4_9-30* x3_10-48* x4_10-16* x1_12-36* x2_12-20* x3_12-32* x4_12-27* x2_13-15* x3_13-24* x4_13
;

/* Variable bounds */
+x1_4+ x1_8+ x1_12+s_1=1;
+ x2_5+ x2_8+ x2_9+ x2_12+ x2_13+s_2=1;
+ x3_6+ x3_8+ x3_9+ x3_10+ x3_12+ x3_13+s_3=1;
+ x4_7+ x4_8+ x4_9+ x4_10+ x4_12+ x4_13+s_4=1;
+x1_4+ x2_5+ x3_6+ x4_7+s_5=1;
+ x2_5+ x3_6+ x4_7+ x2_8+ x3_8+ x4_8+s_6=1;
+ x3_6+ x4_7+ x3_8+ x4_8+ x3_9+ x4_9+s_7=1;
+x1_4+ x2_5+ x3_6+ x4_7+ x1_8+ x2_8+ x3_8+ x4_8+ x2_9+ x3_9+ x4_9+ x3_10+ x4_10+s_8=2;
+ x2_5+ x3_6+ x4_7+ x2_8+ x3_8+ x4_8+ x2_9+ x3_9+ x4_9+ x3_10+ x4_10+ x2_12+ x3_12+ x4_12+s_9=2;
+x1_4+ x2_5+ x3_6+ x4_7+ x1_8+ x2_8+ x3_8+ x4_8+ x2_9+ x3_9+ x4_9+ x3_10+ x4_10+ x1_12+ x2_12+ x3_12+ x4_12+ x2_13+ x3_13+ x4_13+s_10=3;
